884
[0, 22, 37, 68, 34, 30, 12, 69, 28, 21, 65, 58, 62, 56, 14, 23, 15, 46, 36, 57, 49, 9, 51, 59, 11, 32, 53, 47, 10, 66, 55, 50, 64, 63, 61, 20, 16, 8, 39, 26, 45, 60, 38, 44, 24, 42, 40, 5, 41, 17, 3, 1, 6, 18, 31, 2, 7, 25, 48, 54, 27, 13, 19, 29, 43, 67, 33, 4, 52, 35]
